(set-logic QF_NIA)
(set-info :source |
     Constraint systems stating that a matrix interpretation is
     compatible with a rewriting system (weakly compatible with
     all rules, strictly compatible with at least one).

     Contributed by Johannes Waldmann at HTKW Leipzig.
   |)
(set-info :smt-lib-version 2.0)
(set-info :category "crafted")
(set-info :status sat)
(declare-fun n0 () Int)
(assert (>= n0 0))
(declare-fun n1 () Int)
(assert (>= n1 0))
(declare-fun n2 () Int)
(assert (>= n2 0))
(declare-fun n3 () Int)
(assert (>= n3 0))
(declare-fun n4 () Int)
(assert (>= n4 0))
(declare-fun n5 () Int)
(assert (>= n5 0))
(declare-fun n6 () Int)
(assert (>= n6 0))
(declare-fun n7 () Int)
(assert (>= n7 0))
(declare-fun n8 () Int)
(assert (>= n8 0))
(declare-fun n9 () Int)
(assert (>= n9 0))
(declare-fun n10 () Int)
(assert (>= n10 0))
(declare-fun n11 () Int)
(assert (>= n11 0))
(declare-fun n12 () Int)
(assert (>= n12 0))
(declare-fun n13 () Int)
(assert (>= n13 0))
(declare-fun n14 () Int)
(assert (>= n14 0))
(declare-fun n15 () Int)
(assert (>= n15 0))
(declare-fun n16 () Int)
(assert (= n16 (* n9 n8)))
(declare-fun n17 () Int)
(assert (= n17 (+ n8 n16)))
(declare-fun n18 () Int)
(assert (= n18 (* n9 n9)))
(declare-fun n19 () Int)
(assert (= n19 (* n9 n14)))
(declare-fun n20 () Int)
(assert (= n20 (+ n8 n19)))
(declare-fun n21 () Int)
(assert (= n21 (* n9 n15)))
(declare-fun n22 () Int)
(assert (= n22 (* n3 n12)))
(declare-fun n23 () Int)
(assert (= n23 (+ n2 n22)))
(declare-fun n24 () Int)
(assert (= n24 (* n3 n13)))
(declare-fun n25 () Int)
(assert (= n25 (* n7 n17)))
(declare-fun n26 () Int)
(assert (= n26 (+ n6 n25)))
(declare-fun n27 () Int)
(assert (= n27 (* n7 n18)))
(declare-fun n28 () Int)
(assert (= n28 (* n1 n14)))
(declare-fun n29 () Int)
(assert (= n29 (+ n0 n28)))
(declare-fun n30 () Int)
(assert (= n30 (* n1 n15)))
(declare-fun n31 () Int)
(assert (= n31 (* n1 n12)))
(declare-fun n32 () Int)
(assert (= n32 (+ n0 n31)))
(declare-fun n33 () Int)
(assert (= n33 (* n1 n13)))
(assert (>= n32 n0))
(assert (>= n33 n1))
(declare-fun n34 () Int)
(assert (= n34 (* n1 n20)))
(declare-fun n35 () Int)
(assert (= n35 (+ n0 n34)))
(declare-fun n36 () Int)
(assert (= n36 (* n1 n21)))
(assert (>= n26 n35))
(assert (>= n27 n36))
(assert (>= n26 n29))
(assert (>= n27 n30))
(assert (>= n26 n6))
(assert (>= n27 n7))
(declare-fun n37 () Int)
(assert (= n37 (* n3 n20)))
(declare-fun n38 () Int)
(assert (= n38 (+ n2 n37)))
(declare-fun n39 () Int)
(assert (= n39 (* n3 n21)))
(assert (>= n23 n38))
(assert (>= n24 n39))
(assert (>= n23 n29))
(assert (>= n24 n30))
(assert (>= n23 n6))
(assert (>= n24 n7))
(declare-fun n40 () Int)
(assert (= n40 (* n7 n10)))
(declare-fun n41 () Int)
(assert (= n41 (+ n6 n40)))
(declare-fun n42 () Int)
(assert (= n42 (* n7 n11)))
(assert (>= n41 n2))
(assert (>= n42 n3))
(declare-fun n43 () Int)
(assert (= n43 (* n9 n12)))
(declare-fun n44 () Int)
(assert (= n44 (+ n8 n43)))
(declare-fun n45 () Int)
(assert (= n45 (* n9 n13)))
(declare-fun n46 () Int)
(assert (= n46 (* n13 n8)))
(declare-fun n47 () Int)
(assert (= n47 (+ n12 n46)))
(declare-fun n48 () Int)
(assert (= n48 (* n13 n9)))
(assert (>= n44 n47))
(assert (>= n45 n48))
(declare-fun n49 () Int)
(assert (= n49 (* n15 n17)))
(declare-fun n50 () Int)
(assert (= n50 (+ n14 n49)))
(declare-fun n51 () Int)
(assert (= n51 (* n15 n18)))
(declare-fun n52 () Int)
(assert (= n52 (* n18 n14)))
(declare-fun n53 () Int)
(assert (= n53 (+ n17 n52)))
(declare-fun n54 () Int)
(assert (= n54 (* n18 n15)))
(assert (>= n50 n53))
(assert (>= n51 n54))
(declare-fun n55 () Int)
(assert (= n55 (* n11 n12)))
(declare-fun n56 () Int)
(assert (= n56 (+ n10 n55)))
(declare-fun n57 () Int)
(assert (= n57 (* n11 n13)))
(declare-fun n58 () Int)
(assert (= n58 (* n11 n20)))
(declare-fun n59 () Int)
(assert (= n59 (+ n10 n58)))
(declare-fun n60 () Int)
(assert (= n60 (* n11 n21)))
(assert (>= n56 n59))
(assert (>= n57 n60))
(declare-fun n61 () Int)
(assert (= n61 (* n15 n10)))
(declare-fun n62 () Int)
(assert (= n62 (+ n14 n61)))
(declare-fun n63 () Int)
(assert (= n63 (* n15 n11)))
(declare-fun n64 () Int)
(assert (= n64 (* n13 n10)))
(declare-fun n65 () Int)
(assert (= n65 (+ n12 n64)))
(declare-fun n66 () Int)
(assert (= n66 (* n13 n11)))
(assert (>= n62 n65))
(assert (>= n63 n66))
(assert (or (> n32 n0) (> n26 n35) (> n26 n29) (> n26 n6) (> n23 n38) (> n23 n29) (> n23 n6) (> n41 n2)))
(check-sat)
(exit)
